\ Model Routes
\ LP format - for model browsing. Use MPS format to capture full model detail.
Maximize
  - 191.7153353028244 R{0,0} + 623.2046552982704 R{0,1}
   + 623.2046552982704 R{0,2} - 249.2301939667805 R{0,3}
   - 334.6437508789439 R{0,4} + 336.0139884829289 R{0,5}
   + 577.8421868511019 R{0,6} + 108.5677407282498 R{0,7}
   + 421.1680169231749 R{0,8} + 568.2280287393723 R{0,9}
   + 486.6829182142316 R{0,10} - 256.140831891889 R{1,0}
   + 216.3226429839851 R{1,1} + 843.8103196491563 R{1,2}
   + 541.9724420902087 R{1,3} + 486.8114773416354 R{1,4}
   + 865.8435766166604 R{1,5} + 1198.881248318718 R{2,0}
   + 1198.881248318718 R{2,1} - 278.4443928850388 R{2,2}
   + 318.1212024787993 R{2,3} + 800.7457754041151 R{2,4}
   + 838.1281267964846 R{2,5} + 786.3392945839764 R{2,6}
   + 793.3558597785982 R{2,7} + 505.1187011259692 R{2,8}
   + 1153.899422085412 R{2,9} + 1075.854014339962 R{2,10}
   + 543.2771607494243 R{2,11} + 420.7347143171219 R{2,12}
   + 538.0304022998257 R{2,13} - 260.2482995389823 R{3,0}
   + 522.4398281754088 R{3,1} + 1230.485940651614 R{3,2}
   + 674.7567065366272 R{3,3} + 1239.490300823964 R{3,4}
   + 371.4421750839227 R{3,5} + 642.3097560214468 R{3,6}
   + 262.7569727748714 R{3,7} + 1356.752085019187 R{3,8}
   - 242.5208875955131 R{4,0} + 1066.379443184683 R{4,1}
   + 1576.196574514046 R{4,2} + 1421.52011564258 R{4,3}
   + 1031.263138611205 R{4,4} + 1005.245390837192 R{4,5}
   + 1387.855122497651 R{4,6} + 1590.943074026583 R{4,7}
   + 1308.813189216818 R{4,8} + 1066.812638585514 R{4,9}
   + 958.7960280900243 R{4,10} + 850.7255201417406 R{4,11}
   + 1606.643331110302 R{4,12} - 231.9775664337766 R{5,0}
   + 251.2011413408645 R{5,1} + 835.6653627301428 R{5,2}
   + 426.1444027885019 R{5,3} + 534.2182667235643 R{5,4}
   + 1267.741580497495 R{5,5} + 169.5089284354514 R{5,6}
   - 231.1436095783099 R{6,0} + 1370.402709432251 R{6,1}
   + 2203.660382897198 R{6,2} + 2548.258740052186 R{6,3}
   + 2040.292965145048 R{6,4} + 2480.64429855477 R{6,5}
   + 2499.119152270394 R{6,6} + 1245.690171938036 R{6,7}
   + 2641.618778066287 R{6,8} + 1813.047888974808 R{6,9}
   + 1630.305851849703 R{6,10} + 1973.902896307869 R{6,11}
   + 1639.51112157388 R{6,12} + 2350.797244079541 R{6,13}
Subject To
 R00: R{0,0} <= 1
 R01: R{0,1} <= 1
 R02: R{0,2} <= 1
 R03: R{0,3} <= 1
 R04: R{0,4} <= 1
 R05: R{0,5} <= 1
 R06: R{0,6} <= 1
 R07: R{0,7} <= 1
 R08: R{0,8} <= 1
 R09: R{0,9} <= 1
 R010: R{0,10} <= 1
 R011: R{1,0} <= 1
 R012: R{1,1} <= 1
 R013: R{1,2} <= 1
 R014: R{1,3} <= 1
 R015: R{1,4} <= 1
 R016: R{1,5} <= 1
 R017: R{2,0} <= 1
 R018: R{2,1} <= 1
 R019: R{2,2} <= 1
 R020: R{2,3} <= 1
 R021: R{2,4} <= 1
 R022: R{2,5} <= 1
 R023: R{2,6} <= 1
 R024: R{2,7} <= 1
 R025: R{2,8} <= 1
 R026: R{2,9} <= 1
 R027: R{2,10} <= 1
 R028: R{2,11} <= 1
 R029: R{2,12} <= 1
 R030: R{2,13} <= 1
 R031: R{3,0} <= 1
 R032: R{3,1} <= 1
 R033: R{3,2} <= 1
 R034: R{3,3} <= 1
 R035: R{3,4} <= 1
 R036: R{3,5} <= 1
 R037: R{3,6} <= 1
 R038: R{3,7} <= 1
 R039: R{3,8} <= 1
 R040: R{4,0} <= 1
 R041: R{4,1} <= 1
 R042: R{4,2} <= 1
 R043: R{4,3} <= 1
 R044: R{4,4} <= 1
 R045: R{4,5} <= 1
 R046: R{4,6} <= 1
 R047: R{4,7} <= 1
 R048: R{4,8} <= 1
 R049: R{4,9} <= 1
 R050: R{4,10} <= 1
 R051: R{4,11} <= 1
 R052: R{4,12} <= 1
 R053: R{5,0} <= 1
 R054: R{5,1} <= 1
 R055: R{5,2} <= 1
 R056: R{5,3} <= 1
 R057: R{5,4} <= 1
 R058: R{5,5} <= 1
 R059: R{5,6} <= 1
 R060: R{6,0} <= 1
 R061: R{6,1} <= 1
 R062: R{6,2} <= 1
 R063: R{6,3} <= 1
 R064: R{6,4} <= 1
 R065: R{6,5} <= 1
 R066: R{6,6} <= 1
 R067: R{6,7} <= 1
 R068: R{6,8} <= 1
 R069: R{6,9} <= 1
 R070: R{6,10} <= 1
 R071: R{6,11} <= 1
 R072: R{6,12} <= 1
 R073: R{6,13} <= 1
 R1_0: R{0,0} + R{0,1} + R{0,2} + R{0,3} + R{0,4} + R{0,5} + R{0,6}
   + R{0,7} + R{0,8} + R{0,9} + R{0,10} <= 1
 R1_1: R{1,0} + R{1,1} + R{1,2} + R{1,3} + R{1,4} + R{1,5} <= 1
 R1_2: R{2,0} + R{2,1} + R{2,2} + R{2,3} + R{2,4} + R{2,5} + R{2,6}
   + R{2,7} + R{2,8} + R{2,9} + R{2,10} + R{2,11} + R{2,12} + R{2,13} <= 1
 R1_3: R{3,0} + R{3,1} + R{3,2} + R{3,3} + R{3,4} + R{3,5} + R{3,6}
   + R{3,7} + R{3,8} <= 1
 R1_4: R{4,0} + R{4,1} + R{4,2} + R{4,3} + R{4,4} + R{4,5} + R{4,6}
   + R{4,7} + R{4,8} + R{4,9} + R{4,10} + R{4,11} + R{4,12} <= 1
 R1_5: R{5,0} + R{5,1} + R{5,2} + R{5,3} + R{5,4} + R{5,5} + R{5,6} <= 1
 R1_6: R{6,0} + R{6,1} + R{6,2} + R{6,3} + R{6,4} + R{6,5} + R{6,6}
   + R{6,7} + R{6,8} + R{6,9} + R{6,10} + R{6,11} + R{6,12} + R{6,13} <= 1
 R2_0: <= 0
 R2_1: 10 R{2,10} + 10 R{2,12} + 10 R{2,13} + 10 R{3,1} + 10 R{3,2}
   + 10 R{3,3} + 10 R{3,5} + 10 R{3,7} + 10 R{3,8} + 10 R{5,6} + 10 R{6,10}
   <= 10
 R2_2: <= 0
 R2_3: 4 R{2,3} + 4 R{2,4} + 4 R{2,10} + 4 R{2,12} <= 4
 R2_4: <= 0
 R2_5: 5 R{0,4} + 5 R{0,5} <= 5
 R2_6: 10 R{1,1} + 10 R{1,2} + 10 R{1,3} + 10 R{1,4} + 10 R{1,5}
   + 10 R{5,3} <= 10
 R2_7: 6 R{1,1} + 6 R{1,4} <= 6
 R2_8: <= 0
 R2_9: 12 R{4,1} + 12 R{4,2} + 12 R{4,3} + 12 R{4,4} + 12 R{4,5}
   + 12 R{4,6} + 12 R{4,7} + 12 R{4,8} + 12 R{4,9} + 12 R{4,12} <= 12
 R2_10: 8 R{6,1} + 8 R{6,2} + 8 R{6,7} <= 8
 R2_11: 15 R{0,8} <= 15
 R2_12: <= 0
 R2_13: <= 0
 R2_14: <= 0
 R2_15: 11 R{0,0} + 11 R{0,1} + 11 R{0,2} + 11 R{0,8} + 11 R{4,1}
   + 11 R{4,2} + 11 R{4,3} + 11 R{4,6} + 11 R{4,8} <= 11
 R2_16: 5 R{0,10} <= 5
 R2_17: <= 0
 R2_18: <= 0
 R2_19: 11 R{0,7} + 11 R{2,7} + 11 R{2,9} + 11 R{2,11} + 11 R{4,1}
   + 11 R{4,2} + 11 R{4,3} + 11 R{4,5} + 11 R{4,6} + 11 R{4,7} + 11 R{4,8}
   + 11 R{4,12} + 11 R{6,4} + 11 R{6,6} + 11 R{6,9} + 11 R{6,11} <= 11
 R2_20: 13 R{2,6} + 13 R{3,4} + 13 R{3,6} + 13 R{4,6} + 13 R{5,4}
   + 13 R{5,5} + 13 R{6,1} + 13 R{6,2} + 13 R{6,3} + 13 R{6,5} + 13 R{6,7}
   + 13 R{6,8} + 13 R{6,9} + 13 R{6,13} <= 13
 R2_21: <= 0
 R2_22: <= 0
 R2_23: 14 R{0,1} + 14 R{0,2} + 14 R{0,6} + 14 R{0,9} + 14 R{0,10}
   + 14 R{2,0} + 14 R{2,1} + 14 R{6,2} + 14 R{6,3} + 14 R{6,5} + 14 R{6,6}
   + 14 R{6,8} + 14 R{6,11} + 14 R{6,13} <= 14
 R2_24: 10 R{1,4} + 10 R{2,7} + 10 R{3,1} + 10 R{3,2} + 10 R{3,4}
   + 10 R{3,5} + 10 R{3,6} + 10 R{3,7} <= 10
 R2_25: 13 R{4,1} + 13 R{4,2} + 13 R{4,3} + 13 R{4,4} + 13 R{4,6}
   + 13 R{4,7} + 13 R{4,8} + 13 R{4,9} + 13 R{4,12} <= 13
 R2_26: 6 R{2,13} + 6 R{5,1} + 6 R{5,2} + 6 R{5,3} + 6 R{5,4} + 6 R{5,5}
   <= 6
 R2_27: 5 R{1,3} + 5 R{3,3} + 5 R{4,8} + 5 R{4,12} + 5 R{6,1} + 5 R{6,2}
   + 5 R{6,3} + 5 R{6,4} + 5 R{6,5} + 5 R{6,6} + 5 R{6,7} + 5 R{6,8}
   + 5 R{6,10} + 5 R{6,12} <= 5
 R2_28: <= 0
 R2_29: <= 0
 R2_30: <= 0
 R2_31: <= 0
 R2_32: 7 R{5,1} + 7 R{5,2} + 7 R{5,3} + 7 R{5,5} <= 7
 R2_33: <= 0
 R2_34: 5 R{6,13} <= 5
 R2_35: <= 0
 R2_36: <= 0
 R2_37: 5 R{3,1} + 5 R{3,2} + 5 R{3,3} + 5 R{3,8} <= 5
 R2_38: <= 0
 R2_39: <= 0
 R2_40: 15 R{2,3} + 15 R{2,6} <= 15
 R2_41: 5 R{2,5} + 5 R{2,8} + 5 R{3,8} + 5 R{4,4} + 5 R{4,5} + 5 R{4,10}
   + 5 R{4,12} + 5 R{6,5} + 5 R{6,8} + 5 R{6,9} + 5 R{6,10} + 5 R{6,11}
   + 5 R{6,12} + 5 R{6,13} <= 5
 R2_42: 4 R{2,3} + 4 R{2,4} + 4 R{2,6} + 4 R{2,9} <= 4
 R2_43: <= 0
 R2_44: <= 0
 R2_45: <= 0
 R2_46: 9 R{0,6} + 9 R{4,7} + 9 R{4,9} + 9 R{4,11} <= 9
 R2_47: 7 R{5,1} + 7 R{5,2} + 7 R{5,3} + 7 R{5,4} + 7 R{5,6} <= 7
 R2_48: 4 R{4,1} + 4 R{4,2} + 4 R{4,3} + 4 R{4,4} + 4 R{4,5} + 4 R{4,6}
   + 4 R{4,7} + 4 R{4,8} + 4 R{4,9} + 4 R{4,10} + 4 R{4,12} <= 4
 R2_49: <= 0
 R2_50: <= 0
 R2_51: 11 R{4,1} + 11 R{4,3} + 11 R{4,4} + 11 R{4,8} + 11 R{4,9}
   + 11 R{4,12} <= 11
 R2_52: 10 R{4,10} + 10 R{4,11} <= 10
 R2_53: 13 R{4,1} + 13 R{4,2} + 13 R{4,6} + 13 R{4,8} + 13 R{4,9} <= 13
 R2_54: 9 R{3,1} + 9 R{3,2} + 9 R{3,3} + 9 R{3,4} + 9 R{3,5} + 9 R{3,8}
   <= 9
 R2_55: 8 R{6,1} + 8 R{6,2} + 8 R{6,3} + 8 R{6,4} + 8 R{6,5} + 8 R{6,6}
   + 8 R{6,7} + 8 R{6,8} + 8 R{6,9} + 8 R{6,11} + 8 R{6,12} <= 8
 R2_56: 6 R{2,0} + 6 R{2,1} + 6 R{2,5} + 6 R{2,8} + 6 R{4,3} + 6 R{4,7}
   + 6 R{6,2} + 6 R{6,3} + 6 R{6,4} + 6 R{6,6} + 6 R{6,12} <= 6
 R2_57: <= 0
 R2_58: <= 0
 R2_59: 10 R{4,11} <= 10
 R2_60: <= 0
 R2_61: 9 R{4,10} + 9 R{4,11} <= 9
 R2_62: <= 0
 R2_63: <= 0
 R2_64: <= 0
 R2_65: 5 R{2,0} + 5 R{2,1} + 5 R{6,1} + 5 R{6,2} + 5 R{6,3} + 5 R{6,4}
   + 5 R{6,5} + 5 R{6,6} + 5 R{6,7} + 5 R{6,8} + 5 R{6,9} + 5 R{6,10}
   + 5 R{6,11} + 5 R{6,12} + 5 R{6,13} <= 5
 R2_66: 7 R{2,7} + 7 R{2,11} + 7 R{6,1} + 7 R{6,2} + 7 R{6,3} + 7 R{6,4}
   + 7 R{6,5} + 7 R{6,6} + 7 R{6,7} + 7 R{6,11} + 7 R{6,12} <= 7
 R2_67: 3 R{0,1} + 3 R{0,2} + 3 R{0,8} + 3 R{0,9} + 3 R{2,0} + 3 R{2,1}
   + 3 R{2,5} + 3 R{6,3} + 3 R{6,4} + 3 R{6,5} + 3 R{6,6} + 3 R{6,8}
   + 3 R{6,9} + 3 R{6,10} + 3 R{6,11} + 3 R{6,13} <= 3
 R2_68: 6 R{1,1} + 6 R{1,2} + 6 R{1,3} + 6 R{1,4} + 6 R{1,5} <= 6
 R2_69: 7 R{3,6} + 7 R{4,1} + 7 R{4,2} + 7 R{4,3} + 7 R{4,4} + 7 R{4,5}
   + 7 R{4,6} + 7 R{4,7} + 7 R{4,9} + 7 R{4,10} <= 7
 R2_70: 11 R{1,1} + 11 R{1,2} + 11 R{1,5} <= 11
 R2_71: 7 R{6,1} + 7 R{6,2} + 7 R{6,3} + 7 R{6,4} + 7 R{6,5} + 7 R{6,6}
   + 7 R{6,8} + 7 R{6,9} + 7 R{6,11} + 7 R{6,12} + 7 R{6,13} <= 7
 R2_72: <= 0
 R2_73: <= 0
 R2_74: 5 R{5,1} + 5 R{5,4} + 5 R{5,6} <= 5
 R2_75: 8 R{6,1} + 8 R{6,2} + 8 R{6,3} + 8 R{6,4} + 8 R{6,6} + 8 R{6,7}
   <= 8
 R2_76: 12 R{2,3} + 12 R{2,4} + 12 R{2,6} + 12 R{2,7} + 12 R{2,9}
   + 12 R{2,10} + 12 R{2,11} + 12 R{2,12} + 12 R{2,13} + 12 R{6,8}
   + 12 R{6,10} + 12 R{6,13} <= 12
 R2_77: 7 R{0,5} + 7 R{1,2} + 7 R{1,5} + 7 R{2,4} + 7 R{2,9} + 7 R{2,10}
   + 7 R{3,2} + 7 R{3,4} + 7 R{3,8} + 7 R{4,2} + 7 R{5,2} + 7 R{5,5} <= 7
Bounds
End
